*HEADING
Aterro sobre argila Modified Cam Clay - adaptacao FLAC3D / Abaqus Standard
** Unidades: m, N, Pa, kg, s. Modelo 2D em deformacao plana.
** Origem na base; y vertical. Meia fundacao: 20 m x 10 m.
** Malha: 20 x 10 elementos CPE8RP; 661 nos, 200 elementos.
** Fonte: EmbankmentLoad.dat, documentacao FLAC3D 7.0:
** https://docs.itascacg.com/flac3d700/flac3d/zone/test3d/
** ExampleApplications/EmbankmentLoad/embankmentload.html
**
** EXECUCAO no Abaqus Command, na pasta deste arquivo:
** abaqus job=aterro_camclay input=aterro_camclay.inp interactive
** Se o comando abaqus nao existir na Learning Edition 2026:
** use abq2026le em seu lugar, se esse for o comando instalado.
** Alternativa CAE: Job > Create > Source: Input file > este .inp.
** Conferencia de entrada: adicionar datacheck ao comando de execucao.
** RESULTADOS: arquivo aterro_camclay.odb, modulo Visualization.
** Recalque = -U2; POR = pressao TOTAL da agua em Pa.
** Excesso de pressao = POR - 10000*(10-y).
** Tensoes S sao EFETIVAS. PEEQ neste modelo = a = pc/2.
** Historicos U2: conjuntos MON_U0, MON_U2, MON_U4, MON_U6.
** Historicos POR: cantos dos elementos nos pontos de monitoracao.
** Media dos quatro valores POR em MON_P1 -> ponto (0.5,9.5).
** Media dos quatro valores POR em MON_P2 -> ponto (1.5,7.5).
** Subtrair U2 do final de GEOSTATIC para medir somente efeito do aterro.
**
** ESCOLHAS E LIMITES DA ADAPTACAO:
** 1) Segue o CODIGO publicado: pref=1000 Pa, NAO os 100 Pa da tabela.
**    vlambda=2.858; pc0=160000 Pa; M=.888; lambda=.161; kappa=.062.
** 2) No FLAC, ratio .7 e aplicado ANTES de inicializar a poropressao.
**    rho_d=2000; n=.3; rho_w=1000; g=10 -> gamma_sat=23000.
**    Tensoes efetivas: sigma_yy=-13000*d; sigma_xx=sigma_zz=-6100*d.
**    K0 efetivo=61/130, proximo de 6/13 informado no texto.
** 3) kFLAC=1e-12 m^2/(Pa*s). No Abaqus: k=gamma_w*kFLAC=1e-8 m/s.
** 4) FLAC separa volume especifico mecanico v de porosidade hidraulica n.
**    Abaqus usa e tambem na lei mecanica. Mantem-se e0=n/(1-n)=3/7.
**    Para preservar rigidez inicial e taxa inicial de encruamento:
**    vFLAC0=2.858-.161*ln(160000/1000)+.062*ln(160000/p0).
**    lambdaA=lambda*(1+e0)/vFLAC0; kappaA=kappa*(1+e0)/vFLAC0.
**    p0 e vFLAC0 sao calculados no centro de cada camada de 1 m.
**    Assim (1+e0)/kappaA=vFLAC0/kappa e analogamente para lambda-kappa.
**    As 10 definicoes materiais representam essa conversao, NAO estratos.
** 5) beta=1, K=1, a0=80000 Pa recuperam a superficie Modified Cam Clay.
**    Graos incompressiveis e Kw=2e8 Pa; nu=.3 constante.
** 6) Carregamento rapido em 1 s aproxima resposta nao drenada.
**    Topo drenante em todas as etapas; laterais e base sem fluxo.
**    Fluxo interno nao e literalmente desligado como no FLAC.
** 7) Integracao, cinematica e evolucao constitutiva dos programas diferem.
**    NLGEOM=NO, como large-strain off. O teto K=5e6 Pa do FLAC nao e imposto.
**    Resultados precisam de verificacao de convergencia e comparacao.
**    Referencia publicada: ~0.14 m rapido e ~0.19 m ao final; nao sao
**    resultados calculados ou garantidos para este arquivo.
** 8) Arquivo gerado e verificado estruturalmente, mas NAO executado
**    com Abaqus neste ambiente. Nao ha solver Abaqus instalado.
**
*PREPRINT, ECHO=NO, MODEL=NO, HISTORY=NO, CONTACT=NO
*NODE
1, 0, 0
2, 0.5, 0
3, 1, 0
4, 1.5, 0
5, 2, 0
6, 2.5, 0
7, 3, 0
8, 3.5, 0
9, 4, 0
10, 4.5, 0
11, 5, 0
12, 5.5, 0
13, 6, 0
14, 6.5, 0
15, 7, 0
16, 7.5, 0
17, 8, 0
18, 8.5, 0
19, 9, 0
20, 9.5, 0
21, 10, 0
22, 10.5, 0
23, 11, 0
24, 11.5, 0
25, 12, 0
26, 12.5, 0
27, 13, 0
28, 13.5, 0
29, 14, 0
30, 14.5, 0
31, 15, 0
32, 15.5, 0
33, 16, 0
34, 16.5, 0
35, 17, 0
36, 17.5, 0
37, 18, 0
38, 18.5, 0
39, 19, 0
40, 19.5, 0
41, 20, 0
42, 0, 0.5
43, 1, 0.5
44, 2, 0.5
45, 3, 0.5
46, 4, 0.5
47, 5, 0.5
48, 6, 0.5
49, 7, 0.5
50, 8, 0.5
51, 9, 0.5
52, 10, 0.5
53, 11, 0.5
54, 12, 0.5
55, 13, 0.5
56, 14, 0.5
57, 15, 0.5
58, 16, 0.5
59, 17, 0.5
60, 18, 0.5
61, 19, 0.5
62, 20, 0.5
63, 0, 1
64, 0.5, 1
65, 1, 1
66, 1.5, 1
67, 2, 1
68, 2.5, 1
69, 3, 1
70, 3.5, 1
71, 4, 1
72, 4.5, 1
73, 5, 1
74, 5.5, 1
75, 6, 1
76, 6.5, 1
77, 7, 1
78, 7.5, 1
79, 8, 1
80, 8.5, 1
81, 9, 1
82, 9.5, 1
83, 10, 1
84, 10.5, 1
85, 11, 1
86, 11.5, 1
87, 12, 1
88, 12.5, 1
89, 13, 1
90, 13.5, 1
91, 14, 1
92, 14.5, 1
93, 15, 1
94, 15.5, 1
95, 16, 1
96, 16.5, 1
97, 17, 1
98, 17.5, 1
99, 18, 1
100, 18.5, 1
101, 19, 1
102, 19.5, 1
103, 20, 1
104, 0, 1.5
105, 1, 1.5
106, 2, 1.5
107, 3, 1.5
108, 4, 1.5
109, 5, 1.5
110, 6, 1.5
111, 7, 1.5
112, 8, 1.5
113, 9, 1.5
114, 10, 1.5
115, 11, 1.5
116, 12, 1.5
117, 13, 1.5
118, 14, 1.5
119, 15, 1.5
120, 16, 1.5
121, 17, 1.5
122, 18, 1.5
123, 19, 1.5
124, 20, 1.5
125, 0, 2
126, 0.5, 2
127, 1, 2
128, 1.5, 2
129, 2, 2
130, 2.5, 2
131, 3, 2
132, 3.5, 2
133, 4, 2
134, 4.5, 2
135, 5, 2
136, 5.5, 2
137, 6, 2
138, 6.5, 2
139, 7, 2
140, 7.5, 2
141, 8, 2
142, 8.5, 2
143, 9, 2
144, 9.5, 2
145, 10, 2
146, 10.5, 2
147, 11, 2
148, 11.5, 2
149, 12, 2
150, 12.5, 2
151, 13, 2
152, 13.5, 2
153, 14, 2
154, 14.5, 2
155, 15, 2
156, 15.5, 2
157, 16, 2
158, 16.5, 2
159, 17, 2
160, 17.5, 2
161, 18, 2
162, 18.5, 2
163, 19, 2
164, 19.5, 2
165, 20, 2
166, 0, 2.5
167, 1, 2.5
168, 2, 2.5
169, 3, 2.5
170, 4, 2.5
171, 5, 2.5
172, 6, 2.5
173, 7, 2.5
174, 8, 2.5
175, 9, 2.5
176, 10, 2.5
177, 11, 2.5
178, 12, 2.5
179, 13, 2.5
180, 14, 2.5
181, 15, 2.5
182, 16, 2.5
183, 17, 2.5
184, 18, 2.5
185, 19, 2.5
186, 20, 2.5
187, 0, 3
188, 0.5, 3
189, 1, 3
190, 1.5, 3
191, 2, 3
192, 2.5, 3
193, 3, 3
194, 3.5, 3
195, 4, 3
196, 4.5, 3
197, 5, 3
198, 5.5, 3
199, 6, 3
200, 6.5, 3
201, 7, 3
202, 7.5, 3
203, 8, 3
204, 8.5, 3
205, 9, 3
206, 9.5, 3
207, 10, 3
208, 10.5, 3
209, 11, 3
210, 11.5, 3
211, 12, 3
212, 12.5, 3
213, 13, 3
214, 13.5, 3
215, 14, 3
216, 14.5, 3
217, 15, 3
218, 15.5, 3
219, 16, 3
220, 16.5, 3
221, 17, 3
222, 17.5, 3
223, 18, 3
224, 18.5, 3
225, 19, 3
226, 19.5, 3
227, 20, 3
228, 0, 3.5
229, 1, 3.5
230, 2, 3.5
231, 3, 3.5
232, 4, 3.5
233, 5, 3.5
234, 6, 3.5
235, 7, 3.5
236, 8, 3.5
237, 9, 3.5
238, 10, 3.5
239, 11, 3.5
240, 12, 3.5
241, 13, 3.5
242, 14, 3.5
243, 15, 3.5
244, 16, 3.5
245, 17, 3.5
246, 18, 3.5
247, 19, 3.5
248, 20, 3.5
249, 0, 4
250, 0.5, 4
251, 1, 4
252, 1.5, 4
253, 2, 4
254, 2.5, 4
255, 3, 4
256, 3.5, 4
257, 4, 4
258, 4.5, 4
259, 5, 4
260, 5.5, 4
261, 6, 4
262, 6.5, 4
263, 7, 4
264, 7.5, 4
265, 8, 4
266, 8.5, 4
267, 9, 4
268, 9.5, 4
269, 10, 4
270, 10.5, 4
271, 11, 4
272, 11.5, 4
273, 12, 4
274, 12.5, 4
275, 13, 4
276, 13.5, 4
277, 14, 4
278, 14.5, 4
279, 15, 4
280, 15.5, 4
281, 16, 4
282, 16.5, 4
283, 17, 4
284, 17.5, 4
285, 18, 4
286, 18.5, 4
287, 19, 4
288, 19.5, 4
289, 20, 4
290, 0, 4.5
291, 1, 4.5
292, 2, 4.5
293, 3, 4.5
294, 4, 4.5
295, 5, 4.5
296, 6, 4.5
297, 7, 4.5
298, 8, 4.5
299, 9, 4.5
300, 10, 4.5
301, 11, 4.5
302, 12, 4.5
303, 13, 4.5
304, 14, 4.5
305, 15, 4.5
306, 16, 4.5
307, 17, 4.5
308, 18, 4.5
309, 19, 4.5
310, 20, 4.5
311, 0, 5
312, 0.5, 5
313, 1, 5
314, 1.5, 5
315, 2, 5
316, 2.5, 5
317, 3, 5
318, 3.5, 5
319, 4, 5
320, 4.5, 5
321, 5, 5
322, 5.5, 5
323, 6, 5
324, 6.5, 5
325, 7, 5
326, 7.5, 5
327, 8, 5
328, 8.5, 5
329, 9, 5
330, 9.5, 5
331, 10, 5
332, 10.5, 5
333, 11, 5
334, 11.5, 5
335, 12, 5
336, 12.5, 5
337, 13, 5
338, 13.5, 5
339, 14, 5
340, 14.5, 5
341, 15, 5
342, 15.5, 5
343, 16, 5
344, 16.5, 5
345, 17, 5
346, 17.5, 5
347, 18, 5
348, 18.5, 5
349, 19, 5
350, 19.5, 5
351, 20, 5
352, 0, 5.5
353, 1, 5.5
354, 2, 5.5
355, 3, 5.5
356, 4, 5.5
357, 5, 5.5
358, 6, 5.5
359, 7, 5.5
360, 8, 5.5
361, 9, 5.5
362, 10, 5.5
363, 11, 5.5
364, 12, 5.5
365, 13, 5.5
366, 14, 5.5
367, 15, 5.5
368, 16, 5.5
369, 17, 5.5
370, 18, 5.5
371, 19, 5.5
372, 20, 5.5
373, 0, 6
374, 0.5, 6
375, 1, 6
376, 1.5, 6
377, 2, 6
378, 2.5, 6
379, 3, 6
380, 3.5, 6
381, 4, 6
382, 4.5, 6
383, 5, 6
384, 5.5, 6
385, 6, 6
386, 6.5, 6
387, 7, 6
388, 7.5, 6
389, 8, 6
390, 8.5, 6
391, 9, 6
392, 9.5, 6
393, 10, 6
394, 10.5, 6
395, 11, 6
396, 11.5, 6
397, 12, 6
398, 12.5, 6
399, 13, 6
400, 13.5, 6
401, 14, 6
402, 14.5, 6
403, 15, 6
404, 15.5, 6
405, 16, 6
406, 16.5, 6
407, 17, 6
408, 17.5, 6
409, 18, 6
410, 18.5, 6
411, 19, 6
412, 19.5, 6
413, 20, 6
414, 0, 6.5
415, 1, 6.5
416, 2, 6.5
417, 3, 6.5
418, 4, 6.5
419, 5, 6.5
420, 6, 6.5
421, 7, 6.5
422, 8, 6.5
423, 9, 6.5
424, 10, 6.5
425, 11, 6.5
426, 12, 6.5
427, 13, 6.5
428, 14, 6.5
429, 15, 6.5
430, 16, 6.5
431, 17, 6.5
432, 18, 6.5
433, 19, 6.5
434, 20, 6.5
435, 0, 7
436, 0.5, 7
437, 1, 7
438, 1.5, 7
439, 2, 7
440, 2.5, 7
441, 3, 7
442, 3.5, 7
443, 4, 7
444, 4.5, 7
445, 5, 7
446, 5.5, 7
447, 6, 7
448, 6.5, 7
449, 7, 7
450, 7.5, 7
451, 8, 7
452, 8.5, 7
453, 9, 7
454, 9.5, 7
455, 10, 7
456, 10.5, 7
457, 11, 7
458, 11.5, 7
459, 12, 7
460, 12.5, 7
461, 13, 7
462, 13.5, 7
463, 14, 7
464, 14.5, 7
465, 15, 7
466, 15.5, 7
467, 16, 7
468, 16.5, 7
469, 17, 7
470, 17.5, 7
471, 18, 7
472, 18.5, 7
473, 19, 7
474, 19.5, 7
475, 20, 7
476, 0, 7.5
477, 1, 7.5
478, 2, 7.5
479, 3, 7.5
480, 4, 7.5
481, 5, 7.5
482, 6, 7.5
483, 7, 7.5
484, 8, 7.5
485, 9, 7.5
486, 10, 7.5
487, 11, 7.5
488, 12, 7.5
489, 13, 7.5
490, 14, 7.5
491, 15, 7.5
492, 16, 7.5
493, 17, 7.5
494, 18, 7.5
495, 19, 7.5
496, 20, 7.5
497, 0, 8
498, 0.5, 8
499, 1, 8
500, 1.5, 8
501, 2, 8
502, 2.5, 8
503, 3, 8
504, 3.5, 8
505, 4, 8
506, 4.5, 8
507, 5, 8
508, 5.5, 8
509, 6, 8
510, 6.5, 8
511, 7, 8
512, 7.5, 8
513, 8, 8
514, 8.5, 8
515, 9, 8
516, 9.5, 8
517, 10, 8
518, 10.5, 8
519, 11, 8
520, 11.5, 8
521, 12, 8
522, 12.5, 8
523, 13, 8
524, 13.5, 8
525, 14, 8
526, 14.5, 8
527, 15, 8
528, 15.5, 8
529, 16, 8
530, 16.5, 8
531, 17, 8
532, 17.5, 8
533, 18, 8
534, 18.5, 8
535, 19, 8
536, 19.5, 8
537, 20, 8
538, 0, 8.5
539, 1, 8.5
540, 2, 8.5
541, 3, 8.5
542, 4, 8.5
543, 5, 8.5
544, 6, 8.5
545, 7, 8.5
546, 8, 8.5
547, 9, 8.5
548, 10, 8.5
549, 11, 8.5
550, 12, 8.5
551, 13, 8.5
552, 14, 8.5
553, 15, 8.5
554, 16, 8.5
555, 17, 8.5
556, 18, 8.5
557, 19, 8.5
558, 20, 8.5
559, 0, 9
560, 0.5, 9
561, 1, 9
562, 1.5, 9
563, 2, 9
564, 2.5, 9
565, 3, 9
566, 3.5, 9
567, 4, 9
568, 4.5, 9
569, 5, 9
570, 5.5, 9
571, 6, 9
572, 6.5, 9
573, 7, 9
574, 7.5, 9
575, 8, 9
576, 8.5, 9
577, 9, 9
578, 9.5, 9
579, 10, 9
580, 10.5, 9
581, 11, 9
582, 11.5, 9
583, 12, 9
584, 12.5, 9
585, 13, 9
586, 13.5, 9
587, 14, 9
588, 14.5, 9
589, 15, 9
590, 15.5, 9
591, 16, 9
592, 16.5, 9
593, 17, 9
594, 17.5, 9
595, 18, 9
596, 18.5, 9
597, 19, 9
598, 19.5, 9
599, 20, 9
600, 0, 9.5
601, 1, 9.5
602, 2, 9.5
603, 3, 9.5
604, 4, 9.5
605, 5, 9.5
606, 6, 9.5
607, 7, 9.5
608, 8, 9.5
609, 9, 9.5
610, 10, 9.5
611, 11, 9.5
612, 12, 9.5
613, 13, 9.5
614, 14, 9.5
615, 15, 9.5
616, 16, 9.5
617, 17, 9.5
618, 18, 9.5
619, 19, 9.5
620, 20, 9.5
621, 0, 10
622, 0.5, 10
623, 1, 10
624, 1.5, 10
625, 2, 10
626, 2.5, 10
627, 3, 10
628, 3.5, 10
629, 4, 10
630, 4.5, 10
631, 5, 10
632, 5.5, 10
633, 6, 10
634, 6.5, 10
635, 7, 10
636, 7.5, 10
637, 8, 10
638, 8.5, 10
639, 9, 10
640, 9.5, 10
641, 10, 10
642, 10.5, 10
643, 11, 10
644, 11.5, 10
645, 12, 10
646, 12.5, 10
647, 13, 10
648, 13.5, 10
649, 14, 10
650, 14.5, 10
651, 15, 10
652, 15.5, 10
653, 16, 10
654, 16.5, 10
655, 17, 10
656, 17.5, 10
657, 18, 10
658, 18.5, 10
659, 19, 10
660, 19.5, 10
661, 20, 10
*ELEMENT, TYPE=CPE8RP, ELSET=EALL
1, 1, 3, 65, 63, 2, 43, 64, 42
2, 3, 5, 67, 65, 4, 44, 66, 43
3, 5, 7, 69, 67, 6, 45, 68, 44
4, 7, 9, 71, 69, 8, 46, 70, 45
5, 9, 11, 73, 71, 10, 47, 72, 46
6, 11, 13, 75, 73, 12, 48, 74, 47
7, 13, 15, 77, 75, 14, 49, 76, 48
8, 15, 17, 79, 77, 16, 50, 78, 49
9, 17, 19, 81, 79, 18, 51, 80, 50
10, 19, 21, 83, 81, 20, 52, 82, 51
11, 21, 23, 85, 83, 22, 53, 84, 52
12, 23, 25, 87, 85, 24, 54, 86, 53
13, 25, 27, 89, 87, 26, 55, 88, 54
14, 27, 29, 91, 89, 28, 56, 90, 55
15, 29, 31, 93, 91, 30, 57, 92, 56
16, 31, 33, 95, 93, 32, 58, 94, 57
17, 33, 35, 97, 95, 34, 59, 96, 58
18, 35, 37, 99, 97, 36, 60, 98, 59
19, 37, 39, 101, 99, 38, 61, 100, 60
20, 39, 41, 103, 101, 40, 62, 102, 61
21, 63, 65, 127, 125, 64, 105, 126, 104
22, 65, 67, 129, 127, 66, 106, 128, 105
23, 67, 69, 131, 129, 68, 107, 130, 106
24, 69, 71, 133, 131, 70, 108, 132, 107
25, 71, 73, 135, 133, 72, 109, 134, 108
26, 73, 75, 137, 135, 74, 110, 136, 109
27, 75, 77, 139, 137, 76, 111, 138, 110
28, 77, 79, 141, 139, 78, 112, 140, 111
29, 79, 81, 143, 141, 80, 113, 142, 112
30, 81, 83, 145, 143, 82, 114, 144, 113
31, 83, 85, 147, 145, 84, 115, 146, 114
32, 85, 87, 149, 147, 86, 116, 148, 115
33, 87, 89, 151, 149, 88, 117, 150, 116
34, 89, 91, 153, 151, 90, 118, 152, 117
35, 91, 93, 155, 153, 92, 119, 154, 118
36, 93, 95, 157, 155, 94, 120, 156, 119
37, 95, 97, 159, 157, 96, 121, 158, 120
38, 97, 99, 161, 159, 98, 122, 160, 121
39, 99, 101, 163, 161, 100, 123, 162, 122
40, 101, 103, 165, 163, 102, 124, 164, 123
41, 125, 127, 189, 187, 126, 167, 188, 166
42, 127, 129, 191, 189, 128, 168, 190, 167
43, 129, 131, 193, 191, 130, 169, 192, 168
44, 131, 133, 195, 193, 132, 170, 194, 169
45, 133, 135, 197, 195, 134, 171, 196, 170
46, 135, 137, 199, 197, 136, 172, 198, 171
47, 137, 139, 201, 199, 138, 173, 200, 172
48, 139, 141, 203, 201, 140, 174, 202, 173
49, 141, 143, 205, 203, 142, 175, 204, 174
50, 143, 145, 207, 205, 144, 176, 206, 175
51, 145, 147, 209, 207, 146, 177, 208, 176
52, 147, 149, 211, 209, 148, 178, 210, 177
53, 149, 151, 213, 211, 150, 179, 212, 178
54, 151, 153, 215, 213, 152, 180, 214, 179
55, 153, 155, 217, 215, 154, 181, 216, 180
56, 155, 157, 219, 217, 156, 182, 218, 181
57, 157, 159, 221, 219, 158, 183, 220, 182
58, 159, 161, 223, 221, 160, 184, 222, 183
59, 161, 163, 225, 223, 162, 185, 224, 184
60, 163, 165, 227, 225, 164, 186, 226, 185
61, 187, 189, 251, 249, 188, 229, 250, 228
62, 189, 191, 253, 251, 190, 230, 252, 229
63, 191, 193, 255, 253, 192, 231, 254, 230
64, 193, 195, 257, 255, 194, 232, 256, 231
65, 195, 197, 259, 257, 196, 233, 258, 232
66, 197, 199, 261, 259, 198, 234, 260, 233
67, 199, 201, 263, 261, 200, 235, 262, 234
68, 201, 203, 265, 263, 202, 236, 264, 235
69, 203, 205, 267, 265, 204, 237, 266, 236
70, 205, 207, 269, 267, 206, 238, 268, 237
71, 207, 209, 271, 269, 208, 239, 270, 238
72, 209, 211, 273, 271, 210, 240, 272, 239
73, 211, 213, 275, 273, 212, 241, 274, 240
74, 213, 215, 277, 275, 214, 242, 276, 241
75, 215, 217, 279, 277, 216, 243, 278, 242
76, 217, 219, 281, 279, 218, 244, 280, 243
77, 219, 221, 283, 281, 220, 245, 282, 244
78, 221, 223, 285, 283, 222, 246, 284, 245
79, 223, 225, 287, 285, 224, 247, 286, 246
80, 225, 227, 289, 287, 226, 248, 288, 247
81, 249, 251, 313, 311, 250, 291, 312, 290
82, 251, 253, 315, 313, 252, 292, 314, 291
83, 253, 255, 317, 315, 254, 293, 316, 292
84, 255, 257, 319, 317, 256, 294, 318, 293
85, 257, 259, 321, 319, 258, 295, 320, 294
86, 259, 261, 323, 321, 260, 296, 322, 295
87, 261, 263, 325, 323, 262, 297, 324, 296
88, 263, 265, 327, 325, 264, 298, 326, 297
89, 265, 267, 329, 327, 266, 299, 328, 298
90, 267, 269, 331, 329, 268, 300, 330, 299
91, 269, 271, 333, 331, 270, 301, 332, 300
92, 271, 273, 335, 333, 272, 302, 334, 301
93, 273, 275, 337, 335, 274, 303, 336, 302
94, 275, 277, 339, 337, 276, 304, 338, 303
95, 277, 279, 341, 339, 278, 305, 340, 304
96, 279, 281, 343, 341, 280, 306, 342, 305
97, 281, 283, 345, 343, 282, 307, 344, 306
98, 283, 285, 347, 345, 284, 308, 346, 307
99, 285, 287, 349, 347, 286, 309, 348, 308
100, 287, 289, 351, 349, 288, 310, 350, 309
101, 311, 313, 375, 373, 312, 353, 374, 352
102, 313, 315, 377, 375, 314, 354, 376, 353
103, 315, 317, 379, 377, 316, 355, 378, 354
104, 317, 319, 381, 379, 318, 356, 380, 355
105, 319, 321, 383, 381, 320, 357, 382, 356
106, 321, 323, 385, 383, 322, 358, 384, 357
107, 323, 325, 387, 385, 324, 359, 386, 358
108, 325, 327, 389, 387, 326, 360, 388, 359
109, 327, 329, 391, 389, 328, 361, 390, 360
110, 329, 331, 393, 391, 330, 362, 392, 361
111, 331, 333, 395, 393, 332, 363, 394, 362
112, 333, 335, 397, 395, 334, 364, 396, 363
113, 335, 337, 399, 397, 336, 365, 398, 364
114, 337, 339, 401, 399, 338, 366, 400, 365
115, 339, 341, 403, 401, 340, 367, 402, 366
116, 341, 343, 405, 403, 342, 368, 404, 367
117, 343, 345, 407, 405, 344, 369, 406, 368
118, 345, 347, 409, 407, 346, 370, 408, 369
119, 347, 349, 411, 409, 348, 371, 410, 370
120, 349, 351, 413, 411, 350, 372, 412, 371
121, 373, 375, 437, 435, 374, 415, 436, 414
122, 375, 377, 439, 437, 376, 416, 438, 415
123, 377, 379, 441, 439, 378, 417, 440, 416
124, 379, 381, 443, 441, 380, 418, 442, 417
125, 381, 383, 445, 443, 382, 419, 444, 418
126, 383, 385, 447, 445, 384, 420, 446, 419
127, 385, 387, 449, 447, 386, 421, 448, 420
128, 387, 389, 451, 449, 388, 422, 450, 421
129, 389, 391, 453, 451, 390, 423, 452, 422
130, 391, 393, 455, 453, 392, 424, 454, 423
131, 393, 395, 457, 455, 394, 425, 456, 424
132, 395, 397, 459, 457, 396, 426, 458, 425
133, 397, 399, 461, 459, 398, 427, 460, 426
134, 399, 401, 463, 461, 400, 428, 462, 427
135, 401, 403, 465, 463, 402, 429, 464, 428
136, 403, 405, 467, 465, 404, 430, 466, 429
137, 405, 407, 469, 467, 406, 431, 468, 430
138, 407, 409, 471, 469, 408, 432, 470, 431
139, 409, 411, 473, 471, 410, 433, 472, 432
140, 411, 413, 475, 473, 412, 434, 474, 433
141, 435, 437, 499, 497, 436, 477, 498, 476
142, 437, 439, 501, 499, 438, 478, 500, 477
143, 439, 441, 503, 501, 440, 479, 502, 478
144, 441, 443, 505, 503, 442, 480, 504, 479
145, 443, 445, 507, 505, 444, 481, 506, 480
146, 445, 447, 509, 507, 446, 482, 508, 481
147, 447, 449, 511, 509, 448, 483, 510, 482
148, 449, 451, 513, 511, 450, 484, 512, 483
149, 451, 453, 515, 513, 452, 485, 514, 484
150, 453, 455, 517, 515, 454, 486, 516, 485
151, 455, 457, 519, 517, 456, 487, 518, 486
152, 457, 459, 521, 519, 458, 488, 520, 487
153, 459, 461, 523, 521, 460, 489, 522, 488
154, 461, 463, 525, 523, 462, 490, 524, 489
155, 463, 465, 527, 525, 464, 491, 526, 490
156, 465, 467, 529, 527, 466, 492, 528, 491
157, 467, 469, 531, 529, 468, 493, 530, 492
158, 469, 471, 533, 531, 470, 494, 532, 493
159, 471, 473, 535, 533, 472, 495, 534, 494
160, 473, 475, 537, 535, 474, 496, 536, 495
161, 497, 499, 561, 559, 498, 539, 560, 538
162, 499, 501, 563, 561, 500, 540, 562, 539
163, 501, 503, 565, 563, 502, 541, 564, 540
164, 503, 505, 567, 565, 504, 542, 566, 541
165, 505, 507, 569, 567, 506, 543, 568, 542
166, 507, 509, 571, 569, 508, 544, 570, 543
167, 509, 511, 573, 571, 510, 545, 572, 544
168, 511, 513, 575, 573, 512, 546, 574, 545
169, 513, 515, 577, 575, 514, 547, 576, 546
170, 515, 517, 579, 577, 516, 548, 578, 547
171, 517, 519, 581, 579, 518, 549, 580, 548
172, 519, 521, 583, 581, 520, 550, 582, 549
173, 521, 523, 585, 583, 522, 551, 584, 550
174, 523, 525, 587, 585, 524, 552, 586, 551
175, 525, 527, 589, 587, 526, 553, 588, 552
176, 527, 529, 591, 589, 528, 554, 590, 553
177, 529, 531, 593, 591, 530, 555, 592, 554
178, 531, 533, 595, 593, 532, 556, 594, 555
179, 533, 535, 597, 595, 534, 557, 596, 556
180, 535, 537, 599, 597, 536, 558, 598, 557
181, 559, 561, 623, 621, 560, 601, 622, 600
182, 561, 563, 625, 623, 562, 602, 624, 601
183, 563, 565, 627, 625, 564, 603, 626, 602
184, 565, 567, 629, 627, 566, 604, 628, 603
185, 567, 569, 631, 629, 568, 605, 630, 604
186, 569, 571, 633, 631, 570, 606, 632, 605
187, 571, 573, 635, 633, 572, 607, 634, 606
188, 573, 575, 637, 635, 574, 608, 636, 607
189, 575, 577, 639, 637, 576, 609, 638, 608
190, 577, 579, 641, 639, 578, 610, 640, 609
191, 579, 581, 643, 641, 580, 611, 642, 610
192, 581, 583, 645, 643, 582, 612, 644, 611
193, 583, 585, 647, 645, 584, 613, 646, 612
194, 585, 587, 649, 647, 586, 614, 648, 613
195, 587, 589, 651, 649, 588, 615, 650, 614
196, 589, 591, 653, 651, 590, 616, 652, 615
197, 591, 593, 655, 653, 592, 617, 654, 616
198, 593, 595, 657, 655, 594, 618, 656, 617
199, 595, 597, 659, 657, 596, 619, 658, 618
200, 597, 599, 661, 659, 598, 620, 660, 619
*NSET, NSET=NALL
1, 2, 3, 4, 5, 6, 7, 8, 9, 10, 11, 12, 13, 14, 15, 16
17, 18, 19, 20, 21, 22, 23, 24, 25, 26, 27, 28, 29, 30, 31, 32
33, 34, 35, 36, 37, 38, 39, 40, 41, 42, 43, 44, 45, 46, 47, 48
49, 50, 51, 52, 53, 54, 55, 56, 57, 58, 59, 60, 61, 62, 63, 64
65, 66, 67, 68, 69, 70, 71, 72, 73, 74, 75, 76, 77, 78, 79, 80
81, 82, 83, 84, 85, 86, 87, 88, 89, 90, 91, 92, 93, 94, 95, 96
97, 98, 99, 100, 101, 102, 103, 104, 105, 106, 107, 108, 109, 110, 111, 112
113, 114, 115, 116, 117, 118, 119, 120, 121, 122, 123, 124, 125, 126, 127, 128
129, 130, 131, 132, 133, 134, 135, 136, 137, 138, 139, 140, 141, 142, 143, 144
145, 146, 147, 148, 149, 150, 151, 152, 153, 154, 155, 156, 157, 158, 159, 160
161, 162, 163, 164, 165, 166, 167, 168, 169, 170, 171, 172, 173, 174, 175, 176
177, 178, 179, 180, 181, 182, 183, 184, 185, 186, 187, 188, 189, 190, 191, 192
193, 194, 195, 196, 197, 198, 199, 200, 201, 202, 203, 204, 205, 206, 207, 208
209, 210, 211, 212, 213, 214, 215, 216, 217, 218, 219, 220, 221, 222, 223, 224
225, 226, 227, 228, 229, 230, 231, 232, 233, 234, 235, 236, 237, 238, 239, 240
241, 242, 243, 244, 245, 246, 247, 248, 249, 250, 251, 252, 253, 254, 255, 256
257, 258, 259, 260, 261, 262, 263, 264, 265, 266, 267, 268, 269, 270, 271, 272
273, 274, 275, 276, 277, 278, 279, 280, 281, 282, 283, 284, 285, 286, 287, 288
289, 290, 291, 292, 293, 294, 295, 296, 297, 298, 299, 300, 301, 302, 303, 304
305, 306, 307, 308, 309, 310, 311, 312, 313, 314, 315, 316, 317, 318, 319, 320
321, 322, 323, 324, 325, 326, 327, 328, 329, 330, 331, 332, 333, 334, 335, 336
337, 338, 339, 340, 341, 342, 343, 344, 345, 346, 347, 348, 349, 350, 351, 352
353, 354, 355, 356, 357, 358, 359, 360, 361, 362, 363, 364, 365, 366, 367, 368
369, 370, 371, 372, 373, 374, 375, 376, 377, 378, 379, 380, 381, 382, 383, 384
385, 386, 387, 388, 389, 390, 391, 392, 393, 394, 395, 396, 397, 398, 399, 400
401, 402, 403, 404, 405, 406, 407, 408, 409, 410, 411, 412, 413, 414, 415, 416
417, 418, 419, 420, 421, 422, 423, 424, 425, 426, 427, 428, 429, 430, 431, 432
433, 434, 435, 436, 437, 438, 439, 440, 441, 442, 443, 444, 445, 446, 447, 448
449, 450, 451, 452, 453, 454, 455, 456, 457, 458, 459, 460, 461, 462, 463, 464
465, 466, 467, 468, 469, 470, 471, 472, 473, 474, 475, 476, 477, 478, 479, 480
481, 482, 483, 484, 485, 486, 487, 488, 489, 490, 491, 492, 493, 494, 495, 496
497, 498, 499, 500, 501, 502, 503, 504, 505, 506, 507, 508, 509, 510, 511, 512
513, 514, 515, 516, 517, 518, 519, 520, 521, 522, 523, 524, 525, 526, 527, 528
529, 530, 531, 532, 533, 534, 535, 536, 537, 538, 539, 540, 541, 542, 543, 544
545, 546, 547, 548, 549, 550, 551, 552, 553, 554, 555, 556, 557, 558, 559, 560
561, 562, 563, 564, 565, 566, 567, 568, 569, 570, 571, 572, 573, 574, 575, 576
577, 578, 579, 580, 581, 582, 583, 584, 585, 586, 587, 588, 589, 590, 591, 592
593, 594, 595, 596, 597, 598, 599, 600, 601, 602, 603, 604, 605, 606, 607, 608
609, 610, 611, 612, 613, 614, 615, 616, 617, 618, 619, 620, 621, 622, 623, 624
625, 626, 627, 628, 629, 630, 631, 632, 633, 634, 635, 636, 637, 638, 639, 640
641, 642, 643, 644, 645, 646, 647, 648, 649, 650, 651, 652, 653, 654, 655, 656
657, 658, 659, 660, 661
*NSET, NSET=PORE_NODES
1, 3, 5, 7, 9, 11, 13, 15, 17, 19, 21, 23, 25, 27, 29, 31
33, 35, 37, 39, 41, 63, 65, 67, 69, 71, 73, 75, 77, 79, 81, 83
85, 87, 89, 91, 93, 95, 97, 99, 101, 103, 125, 127, 129, 131, 133, 135
137, 139, 141, 143, 145, 147, 149, 151, 153, 155, 157, 159, 161, 163, 165, 187
189, 191, 193, 195, 197, 199, 201, 203, 205, 207, 209, 211, 213, 215, 217, 219
221, 223, 225, 227, 249, 251, 253, 255, 257, 259, 261, 263, 265, 267, 269, 271
273, 275, 277, 279, 281, 283, 285, 287, 289, 311, 313, 315, 317, 319, 321, 323
325, 327, 329, 331, 333, 335, 337, 339, 341, 343, 345, 347, 349, 351, 373, 375
377, 379, 381, 383, 385, 387, 389, 391, 393, 395, 397, 399, 401, 403, 405, 407
409, 411, 413, 435, 437, 439, 441, 443, 445, 447, 449, 451, 453, 455, 457, 459
461, 463, 465, 467, 469, 471, 473, 475, 497, 499, 501, 503, 505, 507, 509, 511
513, 515, 517, 519, 521, 523, 525, 527, 529, 531, 533, 535, 537, 559, 561, 563
565, 567, 569, 571, 573, 575, 577, 579, 581, 583, 585, 587, 589, 591, 593, 595
597, 599, 621, 623, 625, 627, 629, 631, 633, 635, 637, 639, 641, 643, 645, 647
649, 651, 653, 655, 657, 659, 661
*NSET, NSET=LEFT
1, 42, 63, 104, 125, 166, 187, 228, 249, 290, 311, 352, 373, 414, 435, 476
497, 538, 559, 600, 621
*NSET, NSET=RIGHT
41, 62, 103, 124, 165, 186, 227, 248, 289, 310, 351, 372, 413, 434, 475, 496
537, 558, 599, 620, 661
*NSET, NSET=BASE
1, 2, 3, 4, 5, 6, 7, 8, 9, 10, 11, 12, 13, 14, 15, 16
17, 18, 19, 20, 21, 22, 23, 24, 25, 26, 27, 28, 29, 30, 31, 32
33, 34, 35, 36, 37, 38, 39, 40, 41
*NSET, NSET=TOP
621, 622, 623, 624, 625, 626, 627, 628, 629, 630, 631, 632, 633, 634, 635, 636
637, 638, 639, 640, 641, 642, 643, 644, 645, 646, 647, 648, 649, 650, 651, 652
653, 654, 655, 656, 657, 658, 659, 660, 661
*NSET, NSET=TOP_PORE
621, 623, 625, 627, 629, 631, 633, 635, 637, 639, 641, 643, 645, 647, 649, 651
653, 655, 657, 659, 661
*NSET, NSET=P_ROW_00
1, 3, 5, 7, 9, 11, 13, 15, 17, 19, 21, 23, 25, 27, 29, 31
33, 35, 37, 39, 41
*NSET, NSET=P_ROW_01
63, 65, 67, 69, 71, 73, 75, 77, 79, 81, 83, 85, 87, 89, 91, 93
95, 97, 99, 101, 103
*NSET, NSET=P_ROW_02
125, 127, 129, 131, 133, 135, 137, 139, 141, 143, 145, 147, 149, 151, 153, 155
157, 159, 161, 163, 165
*NSET, NSET=P_ROW_03
187, 189, 191, 193, 195, 197, 199, 201, 203, 205, 207, 209, 211, 213, 215, 217
219, 221, 223, 225, 227
*NSET, NSET=P_ROW_04
249, 251, 253, 255, 257, 259, 261, 263, 265, 267, 269, 271, 273, 275, 277, 279
281, 283, 285, 287, 289
*NSET, NSET=P_ROW_05
311, 313, 315, 317, 319, 321, 323, 325, 327, 329, 331, 333, 335, 337, 339, 341
343, 345, 347, 349, 351
*NSET, NSET=P_ROW_06
373, 375, 377, 379, 381, 383, 385, 387, 389, 391, 393, 395, 397, 399, 401, 403
405, 407, 409, 411, 413
*NSET, NSET=P_ROW_07
435, 437, 439, 441, 443, 445, 447, 449, 451, 453, 455, 457, 459, 461, 463, 465
467, 469, 471, 473, 475
*NSET, NSET=P_ROW_08
497, 499, 501, 503, 505, 507, 509, 511, 513, 515, 517, 519, 521, 523, 525, 527
529, 531, 533, 535, 537
*NSET, NSET=P_ROW_09
559, 561, 563, 565, 567, 569, 571, 573, 575, 577, 579, 581, 583, 585, 587, 589
591, 593, 595, 597, 599
*NSET, NSET=P_ROW_10
621, 623, 625, 627, 629, 631, 633, 635, 637, 639, 641, 643, 645, 647, 649, 651
653, 655, 657, 659, 661
*NSET, NSET=MON_U0
621
*NSET, NSET=MON_U2
625
*NSET, NSET=MON_U4
629
*NSET, NSET=MON_U6
633
*NSET, NSET=MON_SETTLEMENT
621, 625, 629, 633
*NSET, NSET=MON_P1
559, 561, 623, 621
*NSET, NSET=MON_P2
437, 439, 501, 499
*ELSET, ELSET=LAYER_00
1, 2, 3, 4, 5, 6, 7, 8, 9, 10, 11, 12, 13, 14, 15, 16
17, 18, 19, 20
*ELSET, ELSET=LAYER_01
21, 22, 23, 24, 25, 26, 27, 28, 29, 30, 31, 32, 33, 34, 35, 36
37, 38, 39, 40
*ELSET, ELSET=LAYER_02
41, 42, 43, 44, 45, 46, 47, 48, 49, 50, 51, 52, 53, 54, 55, 56
57, 58, 59, 60
*ELSET, ELSET=LAYER_03
61, 62, 63, 64, 65, 66, 67, 68, 69, 70, 71, 72, 73, 74, 75, 76
77, 78, 79, 80
*ELSET, ELSET=LAYER_04
81, 82, 83, 84, 85, 86, 87, 88, 89, 90, 91, 92, 93, 94, 95, 96
97, 98, 99, 100
*ELSET, ELSET=LAYER_05
101, 102, 103, 104, 105, 106, 107, 108, 109, 110, 111, 112, 113, 114, 115, 116
117, 118, 119, 120
*ELSET, ELSET=LAYER_06
121, 122, 123, 124, 125, 126, 127, 128, 129, 130, 131, 132, 133, 134, 135, 136
137, 138, 139, 140
*ELSET, ELSET=LAYER_07
141, 142, 143, 144, 145, 146, 147, 148, 149, 150, 151, 152, 153, 154, 155, 156
157, 158, 159, 160
*ELSET, ELSET=LAYER_08
161, 162, 163, 164, 165, 166, 167, 168, 169, 170, 171, 172, 173, 174, 175, 176
177, 178, 179, 180
*ELSET, ELSET=LAYER_09
181, 182, 183, 184, 185, 186, 187, 188, 189, 190, 191, 192, 193, 194, 195, 196
197, 198, 199, 200
*ELSET, ELSET=LOADED_TOP
181, 182, 183, 184
** Camada 00: y=0.500; p0=79800 Pa; vFLAC0=2.08402733502.
*MATERIAL, NAME=CLAY_00
*DENSITY
2000.
*POROUS ELASTIC, TYPE=LOGARITHMIC, SHEAR=POISSON
0.0425001280373, 0.3, 0.
*CLAY PLASTICITY, HARDENING=EXPONENTIAL
0.11036323571, 0.888, 80000., 1., 1.
*PERMEABILITY, TYPE=ISOTROPIC, SPECIFIC=10000.
1.e-8, 0.428571428571
*POROUS BULK MODULI
0., 2.e8
*SOLID SECTION, ELSET=LAYER_00, MATERIAL=CLAY_00
1.
** Camada 01: y=1.500; p0=71400 Pa; vFLAC0=2.09092332439.
*MATERIAL, NAME=CLAY_01
*DENSITY
2000.
*POROUS ELASTIC, TYPE=LOGARITHMIC, SHEAR=POISSON
0.0423599600895, 0.3, 0.
*CLAY PLASTICITY, HARDENING=EXPONENTIAL
0.1099992512, 0.888, 80000., 1., 1.
*PERMEABILITY, TYPE=ISOTROPIC, SPECIFIC=10000.
1.e-8, 0.428571428571
*POROUS BULK MODULI
0., 2.e8
*SOLID SECTION, ELSET=LAYER_01, MATERIAL=CLAY_01
1.
** Camada 02: y=2.500; p0=63000 Pa; vFLAC0=2.09868343926.
*MATERIAL, NAME=CLAY_02
*DENSITY
2000.
*POROUS ELASTIC, TYPE=LOGARITHMIC, SHEAR=POISSON
0.0422033294373, 0.3, 0.
*CLAY PLASTICITY, HARDENING=EXPONENTIAL
0.109592516765, 0.888, 80000., 1., 1.
*PERMEABILITY, TYPE=ISOTROPIC, SPECIFIC=10000.
1.e-8, 0.428571428571
*POROUS BULK MODULI
0., 2.e8
*SOLID SECTION, ELSET=LAYER_02, MATERIAL=CLAY_02
1.
** Camada 03: y=3.500; p0=54600 Pa; vFLAC0=2.10755569156.
*MATERIAL, NAME=CLAY_03
*DENSITY
2000.
*POROUS ELASTIC, TYPE=LOGARITHMIC, SHEAR=POISSON
0.0420256645772, 0.3, 0.
*CLAY PLASTICITY, HARDENING=EXPONENTIAL
0.109131161241, 0.888, 80000., 1., 1.
*PERMEABILITY, TYPE=ISOTROPIC, SPECIFIC=10000.
1.e-8, 0.428571428571
*POROUS BULK MODULI
0., 2.e8
*SOLID SECTION, ELSET=LAYER_03, MATERIAL=CLAY_03
1.
** Camada 04: y=4.500; p0=46200 Pa; vFLAC0=2.11791304481.
*MATERIAL, NAME=CLAY_04
*DENSITY
2000.
*POROUS ELASTIC, TYPE=LOGARITHMIC, SHEAR=POISSON
0.0418201440274, 0.3, 0.
*CLAY PLASTICITY, HARDENING=EXPONENTIAL
0.108597470781, 0.888, 80000., 1., 1.
*PERMEABILITY, TYPE=ISOTROPIC, SPECIFIC=10000.
1.e-8, 0.428571428571
*POROUS BULK MODULI
0., 2.e8
*SOLID SECTION, ELSET=LAYER_04, MATERIAL=CLAY_04
1.
** Camada 05: y=5.500; p0=37800 Pa; vFLAC0=2.13035462793.
*MATERIAL, NAME=CLAY_05
*DENSITY
2000.
*POROUS ELASTIC, TYPE=LOGARITHMIC, SHEAR=POISSON
0.0415759082597, 0.3, 0.
*CLAY PLASTICITY, HARDENING=EXPONENTIAL
0.107963245642, 0.888, 80000., 1., 1.
*PERMEABILITY, TYPE=ISOTROPIC, SPECIFIC=10000.
1.e-8, 0.428571428571
*POROUS BULK MODULI
0., 2.e8
*SOLID SECTION, ELSET=LAYER_05, MATERIAL=CLAY_05
1.
** Camada 06: y=6.500; p0=29400 Pa; vFLAC0=2.14593612248.
*MATERIAL, NAME=CLAY_06
*DENSITY
2000.
*POROUS ELASTIC, TYPE=LOGARITHMIC, SHEAR=POISSON
0.0412740284501, 0.3, 0.
*CLAY PLASTICITY, HARDENING=EXPONENTIAL
0.107179331943, 0.888, 80000., 1., 1.
*PERMEABILITY, TYPE=ISOTROPIC, SPECIFIC=10000.
1.e-8, 0.428571428571
*POROUS BULK MODULI
0., 2.e8
*SOLID SECTION, ELSET=LAYER_06, MATERIAL=CLAY_06
1.
** Camada 07: y=7.500; p0=21000 Pa; vFLAC0=2.16679740115.
*MATERIAL, NAME=CLAY_07
*DENSITY
2000.
*POROUS ELASTIC, TYPE=LOGARITHMIC, SHEAR=POISSON
0.0408766544229, 0.3, 0.
*CLAY PLASTICITY, HARDENING=EXPONENTIAL
0.106147441324, 0.888, 80000., 1., 1.
*PERMEABILITY, TYPE=ISOTROPIC, SPECIFIC=10000.
1.e-8, 0.428571428571
*POROUS BULK MODULI
0., 2.e8
*SOLID SECTION, ELSET=LAYER_07, MATERIAL=CLAY_07
1.
** Camada 08: y=8.500; p0=12600 Pa; vFLAC0=2.19846858983.
*MATERIAL, NAME=CLAY_08
*DENSITY
2000.
*POROUS ELASTIC, TYPE=LOGARITHMIC, SHEAR=POISSON
0.0402877844065, 0.3, 0.
*CLAY PLASTICITY, HARDENING=EXPONENTIAL
0.104618278862, 0.888, 80000., 1., 1.
*PERMEABILITY, TYPE=ISOTROPIC, SPECIFIC=10000.
1.e-8, 0.428571428571
*POROUS BULK MODULI
0., 2.e8
*SOLID SECTION, ELSET=LAYER_08, MATERIAL=CLAY_08
1.
** Camada 09: y=9.500; p0=4200 Pa; vFLAC0=2.26658255172.
*MATERIAL, NAME=CLAY_09
*DENSITY
2000.
*POROUS ELASTIC, TYPE=LOGARITHMIC, SHEAR=POISSON
0.0390770803843, 0.3, 0.
*CLAY PLASTICITY, HARDENING=EXPONENTIAL
0.101474353901, 0.888, 80000., 1., 1.
*PERMEABILITY, TYPE=ISOTROPIC, SPECIFIC=10000.
1.e-8, 0.428571428571
*POROUS BULK MODULI
0., 2.e8
*SOLID SECTION, ELSET=LAYER_09, MATERIAL=CLAY_09
1.
*INITIAL CONDITIONS, TYPE=STRESS, GEOSTATIC
EALL, 0., 10., -130000., 0., 0.469230769231, 0.469230769231
*INITIAL CONDITIONS, TYPE=PORE PRESSURE
PORE_NODES, 100000., 0., 0., 10.
*INITIAL CONDITIONS, TYPE=RATIO
NALL, 0.428571428571
** ETAPA 1: conferir equilibrio geostatico com poropressao hidrostatica.
*STEP, NAME=GEOSTATIC, NLGEOM=NO, INC=100
*GEOSTATIC
1., 1., 1.e-8, 1.
*BOUNDARY
LEFT, 1, 1, 0.
RIGHT, 1, 1, 0.
BASE, 1, 2, 0.
P_ROW_00, 8, 8, 100000
P_ROW_01, 8, 8, 90000
P_ROW_02, 8, 8, 80000
P_ROW_03, 8, 8, 70000
P_ROW_04, 8, 8, 60000
P_ROW_05, 8, 8, 50000
P_ROW_06, 8, 8, 40000
P_ROW_07, 8, 8, 30000
P_ROW_08, 8, 8, 20000
P_ROW_09, 8, 8, 10000
P_ROW_10, 8, 8, 0
*DLOAD
EALL, GRAV, 10., 0., -1., 0.
*OUTPUT, FIELD, FREQUENCY=1
*NODE OUTPUT, NSET=NALL
U, RF
*NODE OUTPUT, NSET=PORE_NODES
POR
*ELEMENT OUTPUT, ELSET=EALL
S, E, PE, PEEQ, VOIDR, FLVEL
*OUTPUT, HISTORY, FREQUENCY=1
*NODE OUTPUT, NSET=MON_SETTLEMENT
U2
*NODE OUTPUT, NSET=MON_P1
POR
*NODE OUTPUT, NSET=MON_P2
POR
*END STEP
** ETAPA 2: rampa de 50 kPa de x=0 a 4 m. Tempo fisico: 1 s.
** OP=NEW libera pressao no interior e repoe todos os apoios.
*STEP, NAME=UNDRAINED_LOADING, NLGEOM=NO, INC=1000, AMPLITUDE=RAMP
*SOILS, CONSOLIDATION, UTOL=5000., END=PERIOD
0.01, 1., 1.e-9, 0.05
*BOUNDARY, OP=NEW
LEFT, 1, 1, 0.
RIGHT, 1, 1, 0.
BASE, 1, 2, 0.
TOP_PORE, 8, 8, 0.
** P3 corresponde a aresta superior (nos locais 3-4).
** Gravidade continua ativa por propagacao, OP=MOD.
*DLOAD, OP=MOD
LOADED_TOP, P3, 50000.
*OUTPUT, FIELD, FREQUENCY=1
*NODE OUTPUT, NSET=NALL
U, RF
*NODE OUTPUT, NSET=PORE_NODES
POR
*ELEMENT OUTPUT, ELSET=EALL
S, E, PE, PEEQ, VOIDR, FLVEL
*OUTPUT, HISTORY, FREQUENCY=1
*NODE OUTPUT, NSET=MON_SETTLEMENT
U2
*NODE OUTPUT, NSET=MON_P1
POR
*NODE OUTPUT, NSET=MON_P2
POR
*END STEP
** ETAPA 3: primeiro periodo de consolidacao, 1e5 s apos a carga.
*STEP, NAME=CONSOLIDATION_EARLY, NLGEOM=NO, INC=2000
*SOILS, CONSOLIDATION, UTOL=5000., END=PERIOD
1.e5, 1.e5, 1., 1.e5
** Apoios, topo drenante, gravidade e 50 kPa continuam ativos.
*OUTPUT, FIELD, FREQUENCY=1
*NODE OUTPUT, NSET=NALL
U, RF
*NODE OUTPUT, NSET=PORE_NODES
POR
*ELEMENT OUTPUT, ELSET=EALL
S, E, PE, PEEQ, VOIDR, FLVEL
*OUTPUT, HISTORY, FREQUENCY=1
*NODE OUTPUT, NSET=MON_SETTLEMENT
U2
*NODE OUTPUT, NSET=MON_P1
POR
*NODE OUTPUT, NSET=MON_P2
POR
*END STEP
** ETAPA 4: completar 1e8 s de consolidacao apos a aplicacao da carga.
*STEP, NAME=CONSOLIDATION_LATE, NLGEOM=NO, INC=4000
*SOILS, CONSOLIDATION, UTOL=2500., END=PERIOD
1.e5, 9.99e7, 1., 5.e6
*OUTPUT, FIELD, FREQUENCY=1
*NODE OUTPUT, NSET=NALL
U, RF
*NODE OUTPUT, NSET=PORE_NODES
POR
*ELEMENT OUTPUT, ELSET=EALL
S, E, PE, PEEQ, VOIDR, FLVEL
*OUTPUT, HISTORY, FREQUENCY=1
*NODE OUTPUT, NSET=MON_SETTLEMENT
U2
*NODE OUTPUT, NSET=MON_P1
POR
*NODE OUTPUT, NSET=MON_P2
POR
*END STEP
